4 
5  04 17 38 54 
6  01 09 16 24 34 42 49 56 
7  04 11 19 26 34 41 49 56 
8  04 11 19 26 34 41 49 56 
9  04 11 19 26 34 41 56 
10  11 26 41 56 
11  11 26 41 56 
12  11 26 41 56 
13  11 26 34 41 49 56 
14  04 11 19 26 34 41 49 56 
15  04 11 19 26 34 41 49 56 
16  04 11 19 26 34 41 49 56 
17  04 11 19 26 34 41 49 56 
18  04 11 19 26 34 41 49 56 
19  04 11 19 26 34 41 49 56 
20  04 11 19 34 49 
21  04 19 34 49 
22  04 19 34 49 
23  06 
0 
